DIMENSION: 6
EDGE_WEIGHT_TYPE: EXPLICIT
EDGE_WEIGHT_FORMAT: FULL_MATRIX
EDGE_WEIGHT_SECTION:
32767 32767 32767 49 3 10 
32767 32767 53 59 32767 6 
32767 53 32767 18 71 8 
49 59 18 32767 38 97 
3 32767 71 38 32767 47 
10 6 8 97 47 32767 
EOF